(set-info :smt-lib-version 2.6)
(set-logic QF_UFLRA)
(set-info :source |
MathSat group

|)
(set-info :category "random")
(set-info :status sat)
(declare-fun f0_1 (Real) Real)
(declare-fun f0_2 (Real Real) Real)
(declare-fun f0_3 (Real Real Real) Real)
(declare-fun f0_4 (Real Real Real Real) Real)
(declare-fun f1_1 (Real) Real)
(declare-fun f1_2 (Real Real) Real)
(declare-fun f1_3 (Real Real Real) Real)
(declare-fun f1_4 (Real Real Real Real) Real)
(declare-fun x0 () Real)
(declare-fun x1 () Real)
(declare-fun x2 () Real)
(declare-fun x3 () Real)
(declare-fun x4 () Real)
(declare-fun x5 () Real)
(declare-fun x6 () Real)
(declare-fun x7 () Real)
(declare-fun x8 () Real)
(declare-fun x9 () Real)
(declare-fun x10 () Real)
(declare-fun x11 () Real)
(declare-fun x12 () Real)
(declare-fun x13 () Real)
(declare-fun x14 () Real)
(declare-fun x15 () Real)
(declare-fun x16 () Real)
(declare-fun x17 () Real)
(declare-fun x18 () Real)
(declare-fun x19 () Real)
(declare-fun x20 () Real)
(declare-fun x21 () Real)
(declare-fun x22 () Real)
(declare-fun x23 () Real)
(declare-fun x24 () Real)
(declare-fun x25 () Real)
(declare-fun x26 () Real)
(declare-fun x27 () Real)
(declare-fun x28 () Real)
(declare-fun x29 () Real)
(declare-fun x30 () Real)
(declare-fun x31 () Real)
(declare-fun x32 () Real)
(declare-fun x33 () Real)
(declare-fun x34 () Real)
(declare-fun x35 () Real)
(declare-fun x36 () Real)
(declare-fun x37 () Real)
(declare-fun x38 () Real)
(declare-fun x39 () Real)
(declare-fun P0 () Bool)
(declare-fun P1 () Bool)
(declare-fun P2 () Bool)
(declare-fun P3 () Bool)
(declare-fun P4 () Bool)
(declare-fun P5 () Bool)
(declare-fun P6 () Bool)
(declare-fun P7 () Bool)
(declare-fun P8 () Bool)
(declare-fun P9 () Bool)
(declare-fun P10 () Bool)
(declare-fun P11 () Bool)
(declare-fun P12 () Bool)
(declare-fun P13 () Bool)
(declare-fun P14 () Bool)
(declare-fun P15 () Bool)
(declare-fun P16 () Bool)
(declare-fun P17 () Bool)
(declare-fun P18 () Bool)
(declare-fun P19 () Bool)
(declare-fun P20 () Bool)
(declare-fun P21 () Bool)
(declare-fun P22 () Bool)
(declare-fun P23 () Bool)
(declare-fun P24 () Bool)
(declare-fun P25 () Bool)
(declare-fun P26 () Bool)
(declare-fun P27 () Bool)
(declare-fun P28 () Bool)
(declare-fun P29 () Bool)
(declare-fun P30 () Bool)
(declare-fun P31 () Bool)
(declare-fun P32 () Bool)
(declare-fun P33 () Bool)
(declare-fun P34 () Bool)
(declare-fun P35 () Bool)
(declare-fun P36 () Bool)
(declare-fun P37 () Bool)
(declare-fun P38 () Bool)
(declare-fun P39 () Bool)
(assert (let ((?v_139 (f1_2 x32 x23)) (?v_28 (* 28 x14)) (?v_216 (f1_1 x18)) (?v_284 (f0_1 x26)) (?v_35 (f1_1 x7)) (?v_32 (f1_2 x11 x3)) (?v_66 (f0_1 x39)) (?v_7 (f1_1 (f1_1 x12)))) (let ((?v_11 (f0_1 ?v_35)) (?v_0 (f0_2 x30 x37)) (?v_93 (- (- (* 29 x7) (* 14 x15)) (* 25 x21)))) (let ((?v_51 (f0_2 ?v_0 x24)) (?v_232 (f1_1 x25)) (?v_43 (f1_2 x6 ?v_35)) (?v_37 (f1_1 x10)) (?v_143 (f1_1 x3)) (?v_26 (f0_2 x4 x2)) (?v_123 (f0_2 x26 x12)) (?v_160 (f1_2 x6 x36)) (?v_153 (f1_2 x35 x30)) (?v_49 (- (+ (* 14 x8) (* 7 x7)) (* 21 x6))) (?v_12 (f1_1 x38)) (?v_285 (f0_2 x23 x31)) (?v_80 (f1_1 x2)) (?v_317 (- (- (* 14 x11) (* 22 x28)) (* 28 x36))) (?v_5 (f0_2 x24 x12)) (?v_33 (f0_1 x20)) (?v_45 (f1_2 x3 x4)) (?v_279 (f0_1 x32)) (?v_291 (f1_2 x10 x36)) (?v_4 (- (- (* 25 x30) (* 13 x27)) (* 10 x20))) (?v_178 (f0_1 x13)) (?v_8 (- (+ (* 22 x30) (* 17 x8)) (* 20 x19))) (?v_79 (f0_2 x17 x15)) (?v_34 (f0_1 x16))) (let ((?v_78 (f1_1 ?v_4)) (?v_6 (f0_2 x27 x8)) (?v_142 (+ (- (* 24 x32) (* 10 x9)) (* 24 x21))) (?v_95 (f0_1 x38)) (?v_13 (f1_2 x24 x29)) (?v_315 (- (+ (* 27 x21) (* 5 x2)) (* 9 x14))) (?v_88 (f1_2 x20 x26)) (?v_67 (f0_2 x2 x36))) (let ((?v_31 (< ?v_78 0)) (?v_289 (< x18 27)) (?v_145 (< ?v_123 27)) (?v_119 (< x23 12)) (?v_296 (= ?v_66 ?v_67)) (?v_204 (= (f1_2 (f0_2 x27 x4) ?v_26) x12)) (?v_148 (< ?v_153 7)) (?v_287 (= ?v_13 ?v_7)) (?v_475 (< x38 2)) (?v_128 (< ?v_51 13)) (?v_277 (< x25 23)) (?v_112 (= ?v_13 x31)) (?v_450 (< ?v_285 13)) (?v_301 (< ?v_33 1)) (?v_111 (= ?v_7 ?v_8)) (?v_106 (< ?v_8 4)) (?v_169 (< (f0_2 x3 x15) 2)) (?v_391 (< (f1_1 x17) 25)) (?v_210 (< ?v_79 21)) (?v_85 (= ?v_232 x26)) (?v_411 (< x22 5)) (?v_183 (< ?v_80 7)) (?v_307 (< (f0_2 x17 x24) 9)) (?v_328 (= (- (- (* 8 x5) (* 12 x35)) (* 5 x9)) ?v_32)) (?v_247 (< ?v_284 26)) (?v_283 (< x21 22)) (?v_383 (< ?v_45 8)) (?v_3 (< x38 5)) (?v_24 (< x18 19)) (?v_107 (< x30 18)) (?v_304 (< x17 28)) (?v_246 (< ?v_11 18)) (?v_362 (< x28 21)) (?v_463 (= ?v_142 ?v_143)) (?v_342 (< ?v_95 10)) (?v_68 (= ?v_7 x6)) (?v_115 (= (- (+ (* 26 x28) (* 26 x18)) (* 22 x37)) ?v_37)) (?v_278 (< x8 6)) (?v_356 (< ?v_32 3)) (?v_91 (< x33 28)) (?v_198 (< ?v_26 19)) (?v_219 (< ?v_0 25)) (?v_199 (= x23 ?v_143)) (?v_122 (= x26 ?v_88)) (?v_176 (= ?v_80 ?v_26)) (?v_170 (= ?v_291 ?v_33)) (?v_195 (< ?v_37 27)) (?v_367 (< (f0_2 x11 x35) 13)) (?v_419 (< ?v_216 9)) (?v_229 (< x38 3)) (?v_50 (= (f0_2 x16 x22) ?v_4)) (?v_272 (< ?v_178 24)) (?v_86 (= ?v_5 ?v_11)) (?v_18 (< ?v_12 16)) (?v_260 (< ?v_160 26)) (?v_461 (< x1 8)) (?v_166 (= x10 ?v_153)) (?v_353 (< ?v_279 21)) (?v_379 (= ?v_160 x6)) (?v_9 (< ?v_8 16)) (?v_412 (< x27 17)) (?v_408 (< x3 17)) (?v_375 (= x35 x4)) (?v_237 (= ?v_95 ?v_51)) (?v_271 (< ?v_143 9)) (?v_16 (< x22 21)) (?v_104 (< ?v_34 4)) (?v_129 (< ?v_0 5)) (?v_336 (< ?v_66 21)) (?v_240 (< (f1_1 x13) 17)) (?v_47 (< ?v_7 13)) (?v_222 (< x11 5)) (?v_273 (< ?v_4 20)) (?v_58 (= x32 ?v_67)) (?v_200 (< x30 0)) (?v_2 (= ?v_6 x6)) (?v_181 (< ?v_11 8))) (let ((?v_99 (not ?v_277)) (?v_27 (not ?v_3)) (?v_100 (not P9)) (?v_206 (not P7)) (?v_40 (not ?v_2)) (?v_325 (not ?v_50)) (?v_41 (not ?v_16)) (?v_435 (not ?v_111)) (?v_378 (not ?v_9)) (?v_75 (not P20)) (?v_87 (not P24)) (?v_71 (not (< x27 13))) (?v_226 (not ?v_107)) (?v_130 (not ?v_18)) (?v_134 (not ?v_336)) (?v_443 (not ?v_391)) (?v_57 (not P3)) (?v_90 (not P10)) (?v_442 (not ?v_31)) (?v_180 (not ?v_356)) (?v_140 (not ?v_304)) (?v_81 (not P39)) (?v_146 (not ?v_222)) (?v_335 (not ?v_412)) (?v_377 (not P29)) (?v_202 (not P28)) (?v_162 (not P37)) (?v_152 (not ?v_106)) (?v_101 (not ?v_411)) (?v_249 (not ?v_128)) (?v_326 (not P11)) (?v_318 (not ?v_58)) (?v_63 (not P19)) (?v_348 (not ?v_176)) (?v_374 (not P21)) (?v_259 (not ?v_181)) (?v_292 (not P26)) (?v_369 (not P4)) (?v_220 (not ?v_183)) (?v_343 (not P33)) (?v_179 (not ?v_85)) (?v_363 (not P1)) (?v_105 (not ?v_328)) (?v_297 (not ?v_367)) (?v_208 (not ?v_91)) (?v_124 (not ?v_195)) (?v_163 (not ?v_119)) (?v_337 (not ?v_104)) (?v_209 (not ?v_24)) (?v_182 (not P31)) (?v_416 (not ?v_362)) (?v_213 (not ?v_283)) (?v_207 (not ?v_129)) (?v_352 (not ?v_301)) (?v_358 (not ?v_229)) (?v_231 (not ?v_463)) (?v_282 (not P22)) (?v_451 (not P14)) (?v_321 (not P15)) (?v_306 (not ?v_145)) (?v_275 (not ?v_199)) (?v_212 (not ?v_166)) (?v_257 (not P35)) (?v_372 (not P18)) (?v_177 (not ?v_379)) (?v_190 (not ?v_260)) (?v_471 (not ?v_169)) (?v_371 (not ?v_170)) (?v_196 (not P34)) (?v_331 (not P36)) (?v_322 (not P6)) (?v_455 (not ?v_204)) (?v_251 (not P12)) (?v_227 (not ?v_278)) (?v_465 (not P27)) (?v_290 (not ?v_419)) (?v_298 (not ?v_237)) (?v_351 (not ?v_240)) (?v_341 (not ?v_246)) (?v_457 (not ?v_247)) (?v_258 (not ?v_112)) (?v_464 (not ?v_342)) (?v_294 (not P17)) (?v_449 (not ?v_210)) (?v_299 (not ?v_273)) (?v_346 (not ?v_200)) (?v_311 (not ?v_271)) (?v_368 (not P13)) (?v_439 (not P8)) (?v_316 (not ?v_450)) (?v_354 (not ?v_289)) (?v_388 (not ?v_68)) (?v_422 (not P25)) (?v_428 (not ?v_307)) (?v_420 (not P38)) (?v_433 (not ?v_461)) (?v_454 (not ?v_353)) (?v_399 (not ?v_47)) (?v_462 (not ?v_219)) (?v_390 (not P16)) (?v_401 (not P23)) (?v_430 (not ?v_198)) (?v_470 (not ?v_296)) (?v_444 (not ?v_86)) (?v_456 (not P5)) (?v_459 (not ?v_272)) (?v_476 (not ?v_408)) (?v_1 (+ (* 11 x8) (* 4 x9) (* 16 x2)))) (let ((?v_21 (< ?v_1 14)) (?v_94 (- (- (* 12 x10) x30) (* 29 x17))) (?v_22 (- (+ x37 (* 21 x37)) (* 12 x21)))) (let ((?v_39 (not ?v_21)) (?v_132 (= ?v_93 ?v_94)) (?v_188 (= ?v_94 x7))) (let ((?v_350 (not ?v_188)) (?v_402 (not ?v_132)) (?v_25 (+ (* (- 1) x5) (* 27 (f1_1 x24)) (* 3 x25)))) (let ((?v_376 (= x22 ?v_25)) (?v_193 (+ (* (- 17) ?v_32) (* 10 ?v_94) (* 3 ?v_0)))) (let ((?v_46 (+ (* (- 11) x18) (* 11 ?v_51) (* 27 ?v_193)))) (let ((?v_14 (= ?v_46 ?v_1))) (let ((?v_385 (not ?v_14)) (?v_15 (- (- (* (- 7) x25) ?v_28) (* 19 x37)))) (let ((?v_17 (+ (* 22 (+ (- (* (- 3) x6) (* 22 x20)) (* 9 x21))) (* 28 x2) (* 29 ?v_15)))) (let ((?v_211 (< ?v_17 6)) (?v_164 (< x12 (- 12))) (?v_302 (< ?v_279 (- 18))) (?v_96 (+ (- (* (- 29) x0) (* 20 x22)) (* 9 x23)))) (let ((?v_23 (< ?v_96 (- 7))) (?v_29 (< (f0_2 x22 ?v_5) (- 11))) (?v_10 (- (+ (* (- 5) x10) (* 6 x11)) (* 18 x39)))) (let ((?v_309 (= ?v_6 (f0_1 ?v_10)))) (let ((?v_262 (not ?v_309)) (?v_53 (< ?v_10 11)) (?v_52 (< ?v_11 (- 14)))) (let ((?v_20 (not ?v_52)) (?v_19 (< (- (- (* 16 x37) (* 29 x13)) (* 16 x30)) (- 21))) (?v_54 (< ?v_12 (- 18))) (?v_359 (< ?v_22 (- 22)))) (let ((?v_347 (not ?v_359)) (?v_42 (- (+ (* (- 21) x13) x37) (* 5 x21)))) (let ((?v_125 (< ?v_42 1))) (let ((?v_126 (not ?v_125)) (?v_36 (- (- (* (- 19) x23) (* 6 x16)) (* 15 x9)))) (let ((?v_171 (< ?v_36 10))) (let ((?v_121 (not ?v_171)) (?v_110 (= ?v_26 ?v_15)) (?v_261 (= ?v_15 (- (- (* 29 ?v_8) (* 27 ?v_34)) (* 24 ?v_13))))) (let ((?v_157 (not ?v_261)) (?v_295 (< ?v_17 (- 25)))) (let ((?v_149 (not ?v_295)) (?v_407 (< x8 (- 12)))) (let ((?v_241 (not ?v_407)) (?v_44 (+ (- (* (- 1) x8) (* 25 x26)) (* 21 x5)))) (let ((?v_136 (= ?v_123 ?v_44))) (let ((?v_333 (not ?v_136)) (?v_135 (not ?v_19)) (?v_62 (- (+ (* (- 13) x14) (* 25 ?v_33)) (* 21 x39)))) (let ((?v_150 (not (< ?v_62 18))) (?v_382 (< ?v_88 (- 4)))) (let ((?v_452 (not ?v_382)) (?v_201 (- (- (* (- 2) x32) (* 17 x38)) (* 19 x36)))) (let ((?v_30 (f0_1 ?v_201))) (let ((?v_98 (f0_2 ?v_30 x23))) (let ((?v_168 (+ (* 6 ?v_98) (* 12 ?v_45) (* 29 ?v_22)))) (let ((?v_254 (< ?v_168 25)) (?v_265 (not ?v_23)) (?v_76 (= ?v_142 (+ (- (* 13 ?v_93) (* 3 ?v_11)) (* 14 (- (- (* (- 5) x24) (* 20 x3)) (* 16 x22)))))) (?v_392 (< ?v_25 4)) (?v_61 (- (+ (* (- 12) x20) (* 23 x22)) ?v_28))) (let ((?v_174 (< ?v_61 (- 28)))) (let ((?v_224 (not ?v_174)) (?v_73 (not ?v_29)) (?v_97 (f0_2 ?v_30 x3))) (let ((?v_133 (< ?v_97 (- 11))) (?v_187 (< ?v_317 (- 5)))) (let ((?v_221 (not ?v_187)) (?v_48 (< x18 (- 20)))) (let ((?v_109 (not ?v_48)) (?v_147 (- (- (* (- 17) x23) (* 22 x14)) (* 7 x17)))) (let ((?v_64 (< ?v_147 0))) (let ((?v_74 (not ?v_64)) (?v_113 (< x16 (- 24))) (?v_253 (not (= ?v_49 ?v_25))) (?v_429 (= ?v_17 ?v_33)) (?v_250 (< ?v_43 (- 23))) (?v_65 (< ?v_36 2)) (?v_38 (= (- (+ (* (- 23) x18) (* 8 x15)) (* 28 x0)) ?v_37)) (?v_256 (< ?v_25 5)) (?v_89 (< ?v_178 (- 14))) (?v_159 (= (+ (- (* (- 12) x34) (* 20 x6)) (* 22 x3)) x13))) (let ((?v_217 (not ?v_38)) (?v_361 (< x39 (- 19))) (?v_155 (< x26 (- 13))) (?v_83 (< ?v_42 (- 28))) (?v_69 (+ (- (* 14 ?v_43) (* 17 ?v_44)) (* 20 ?v_11)))) (let ((?v_192 (< ?v_69 (- 16))) (?v_55 (< ?v_315 (- 17))) (?v_248 (< ?v_45 (- 10)))) (let ((?v_437 (not ?v_248)) (?v_102 (= ?v_46 ?v_7)) (?v_127 (< ?v_49 (- 19))) (?v_56 (- (- (* (- 16) x32) (* 27 x22)) (* 14 x23)))) (let ((?v_118 (< ?v_56 (- 22))) (?v_400 (< x2 (- 16)))) (let ((?v_60 (not ?v_400)) (?v_154 (not ?v_53)) (?v_467 (< x9 (- 27)))) (let ((?v_59 (not ?v_467)) (?v_184 (not (< (f1_1 ?v_56) 7))) (?v_92 (< ?v_61 19)) (?v_70 (< ?v_62 (- 13))) (?v_286 (< ?v_34 (- 15)))) (let ((?v_244 (not ?v_286)) (?v_82 (not ?v_65)) (?v_239 (< (+ (* 2 x29) (* 14 x39) (* 23 x10)) (- 11)))) (let ((?v_329 (not ?v_239)) (?v_281 (< ?v_17 (- 15))) (?v_72 (< ?v_79 (- 25))) (?v_116 (< x25 (- 19)))) (let ((?v_243 (not ?v_116)) (?v_77 (+ (- (* 17 x18) (* 7 x14)) (* 21 ?v_69)))) (let ((?v_225 (< ?v_77 0))) (let ((?v_234 (not ?v_225)) (?v_332 (< (f1_2 ?v_17 ?v_17) (- 4))) (?v_144 (< ?v_42 0))) (let ((?v_267 (not ?v_144)) (?v_189 (< ?v_67 (- 20)))) (let ((?v_403 (not ?v_189)) (?v_117 (not ?v_76)) (?v_175 (< ?v_25 (- 2)))) (let ((?v_214 (not ?v_175)) (?v_330 (= ?v_69 (f0_1 x11)))) (let ((?v_334 (not ?v_330)) (?v_203 (= ?v_62 (+ (* 6 x26) (* 18 ?v_77) (* 19 ?v_78))))) (let ((?v_185 (not ?v_203)) (?v_173 (< x37 (- 21)))) (let ((?v_84 (not ?v_173)) (?v_205 (+ (- (* (- 5) x12) (* 7 ?v_56)) (* 13 ?v_79)))) (let ((?v_313 (< ?v_205 (- 11)))) (let ((?v_103 (not ?v_313)) (?v_255 (< (f0_1 ?v_95) (- 10)))) (let ((?v_236 (not ?v_255)) (?v_426 (= ?v_61 (+ (- (* 15 (f1_1 x21)) (* 21 ?v_15)) (* 28 ?v_44))))) (let ((?v_230 (not ?v_426)) (?v_228 (- (- (* (- 16) x1) (* 14 x22)) (* 6 x17)))) (let ((?v_197 (= (- (- (* 21 x7) (* 25 ?v_228)) (* 28 ?v_0)) ?v_32))) (let ((?v_151 (not ?v_197)) (?v_158 (< ?v_139 (- 28)))) (let ((?v_194 (not ?v_158)) (?v_165 (= (f0_1 ?v_30) x12)) (?v_245 (- (- (* (- 18) ?v_96) (* 3 ?v_97)) (* 17 ?v_98)))) (let ((?v_186 (< ?v_245 (- 23))) (?v_235 (not ?v_70)) (?v_274 (< x21 (- 12)))) (let ((?v_108 (not ?v_274)) (?v_120 (< ?v_79 (- 16)))) (let ((?v_477 (not ?v_120)) (?v_223 (not ?v_110)) (?v_218 (= (- (- (* (- 17) ?v_0) (* 19 ?v_285)) (* 25 x25)) x31)) (?v_215 (< ?v_93 (- 5)))) (let ((?v_138 (not ?v_215)) (?v_114 (= ?v_12 ?v_97)) (?v_303 (< ?v_77 2)) (?v_344 (not ?v_113)) (?v_276 (< x29 (- 23))) (?v_293 (= ?v_143 (f1_1 ?v_17)))) (let ((?v_440 (not ?v_293)) (?v_141 (< x20 (- 27))) (?v_131 (< (f0_1 ?v_5) (- 14))) (?v_360 (not ?v_127)) (?v_364 (< x5 (- 6)))) (let ((?v_355 (not ?v_131)) (?v_167 (not ?v_133)) (?v_137 (< (+ (* (- 29) x20) (* 2 x4) (* 23 x32)) 17)) (?v_288 (= ?v_45 (f0_2 (+ (- (* (- 26) x5) (* 29 x39)) (* 24 x2)) x39)))) (let ((?v_161 (not ?v_137)) (?v_384 (< (+ (- (* (- 12) x28) (* 11 x26)) (* 2 x18)) (- 29))) (?v_238 (< ?v_139 (- 1)))) (let ((?v_468 (not ?v_238)) (?v_458 (not ?v_141)) (?v_393 (< (- (+ (* (- 27) x27) x35) (* 17 x25)) (- 2)))) (let ((?v_432 (not ?v_393)) (?v_156 (< ?v_147 (- 1))) (?v_172 (< x28 (- 24)))) (let ((?v_264 (not ?v_172)) (?v_453 (< x35 (- 29)))) (let ((?v_395 (not ?v_453)) (?v_191 (not ?v_83)) (?v_421 (not ?v_54)) (?v_305 (not ?v_156)) (?v_268 (< x3 (- 5)))) (let ((?v_415 (not ?v_268)) (?v_242 (< ?v_168 15)) (?v_300 (< x11 (- 2))) (?v_266 (not ?v_186)) (?v_381 (not ?v_192)) (?v_339 (= (+ (* (- 23) x26) (* 13 x25) (* 28 x28)) ?v_193))) (let ((?v_252 (not ?v_339)) (?v_405 (not ?v_92)) (?v_409 (= x21 (- (+ (* 2 x21) (* 5 ?v_201)) (* 20 ?v_216))))) (let ((?v_448 (not ?v_409)) (?v_312 (< ?v_205 3))) (let ((?v_320 (not ?v_312)) (?v_357 (< (+ (* (- 19) x5) (* 25 x1) (* 2 x9)) 29)) (?v_269 (not ?v_118)) (?v_233 (= ?v_142 ?v_228)) (?v_308 (< ?v_232 (- 18))) (?v_280 (< ?v_8 (- 10))) (?v_340 (< ?v_17 (- 17)))) (let ((?v_270 (not ?v_340)) (?v_414 (not ?v_242)) (?v_263 (< ?v_25 (- 29))) (?v_310 (< ?v_37 (- 28))) (?v_365 (= (f1_2 x37 x6) ?v_245))) (let ((?v_446 (not ?v_365)) (?v_387 (not ?v_250)) (?v_466 (< ?v_33 (- 12))) (?v_314 (not ?v_89)) (?v_327 (not (< (f0_1 x8) (- 12)))) (?v_386 (not ?v_254)) (?v_370 (not ?v_263)) (?v_349 (not ?v_164)) (?v_460 (not ?v_288)) (?v_319 (< ?v_291 (- 14))) (?v_417 (not ?v_280)) (?v_398 (not ?v_302)) (?v_323 (< ?v_10 (- 2))) (?v_366 (= x0 ?v_15)) (?v_373 (< ?v_315 (- 11)))) (let ((?v_478 (not ?v_373)) (?v_394 (< (+ (- (* (- 1) x33) (* 18 x10)) (* 7 x19)) 3))) (let ((?v_338 (not ?v_394)) (?v_424 (not ?v_233)) (?v_389 (< ?v_317 (- 19)))) (let ((?v_445 (not ?v_389)) (?v_324 (not ?v_319)) (?v_345 (not ?v_55)) (?v_410 (not ?v_256)) (?v_423 (not ?v_332)) (?v_436 (not ?v_114)) (?v_418 (< (f0_1 x34) (- 25))) (?v_404 (not ?v_357)) (?v_380 (not ?v_361)) (?v_406 (not ?v_366)) (?v_397 (not ?v_276)) (?v_447 (< ?v_22 (- 17)))) (let ((?v_431 (not ?v_447)) (?v_441 (< ?v_30 23)) (?v_434 (not ?v_165)) (?v_427 (not ?v_364)) (?v_396 (not ?v_218)) (?v_425 (not ?v_308)) (?v_413 (not ?v_392)) (?v_438 (< ?v_66 (- 24))) (?v_474 (not ?v_384))) (let ((?v_469 (not ?v_441)) (?v_473 (not ?v_429)) (?v_472 (not ?v_323))) (and (and (and (and (and (and (and (and (and (and (and (and (and (and (and (and (and (and (and (and (and (and (and (and (and (and (and (and (and (and (and (and (and (and (and (and (and (and (and (and (and (and (and (and (and (and (and (and (and (and (and (and (and (and (and (and (and (and (and (and (and (and (and (and (and (and (and (and (and (and (and (and (and (and (and (and (and (and (and (and (and (and (and (and (and (and (and (and (and (and (and (and (and (and (and (and (and (and (and (and (and (and (and (and (and (and (and (and (and (and (and (and (and (and (and (and (and (and (and (and (and (and (and (and (and (and (and (and (and (and (and (and (and (and (and (and (and (and (and (and (and (and (and (and (and (and (and (and (and (and (and (and (and (and (and (and (and (and (and (and (and (and (and (and (and (and (and (and (and (and (and (and (and (and (and (and (and (and (and (and (and (and (and (and (and (and (and (and (and (and (and (and (and (and (and (and (and (and (and (and (and (and (and (and (and (and (and (and (and (and (and (and (and (and (and (and (and (and (and (and (and (and (and (and (and (and (and (and (and (and (and (and (and (and (and (and (and (and (and (and (and (and (and (and (and (and (and (and (and (and (and (and (and (and (and (and (and (and (and (and (and (and (and (and (and (and (and (and (and (and (and (and (and (and (and (and (and (and (and (and (and (and (and (and (and (and (and (and (and (and (and (and (and (and (and (and (and (and (and (and (and (and (and (and (and (and (and (and (and (and (and (and (and (and (and (and (and (and (and (and (and (and (and (and (and (and (and (and (and (and (and (and (and (and (and (and (and (and (and (and (and (and (and (and (and (and (and (and (and (and (and (and (and (and (and (and (and (and (and (and (and (and (and (and (and (and (and (and (and (and (and (and (and (and (and (and (and (and (and (and (and (and (and (and (and (and (and (and (and (and (and (and (and (and (and (and (and (and (and (and (and (and (and (and (and (and (and (and (and (and (and (and (and (and (and (and (and (and (and (and (and (and (and (and (and (and (and (and (and (and (and (and (and (and (and (and (and (and (and (and (and (and (and (and (and (and (and (and (and (and (and (and (and (and (and (and (and (and (and (and (and (and (and (and (and (and (and (and (and (and (and (and (and (and (and (and (and (and (and (and (and (and (and (and (and (and (and (and (and (and (and (and (and (and (and (and (and (and (and (and (and (and (and (and (and (and (and (and (and (and (and (and (and (and (and (and (and (and (and (and (and (and (and (and (and (and (and (and (and (and (and (and (and (and (and (and (and (and (and (and (and (and (and (and (and (and (and (and (and (and (and (and (and (and (and (and (and (and (and (and (and (and (and (and (and (and (and (and (and (and (and (and (and (and (and (and (and (and (and (and (and (and (and (and (and (and (and (and (and (and (and (and (and (and (and (and (and (and (and (or (or ?v_2 ?v_112) ?v_21) (or (or ?v_24 ?v_376) ?v_385)) (or (or ?v_18 ?v_99) ?v_27)) (or (or ?v_68 ?v_211) ?v_100)) (or (or ?v_9 ?v_206) P0)) (or (or ?v_86 ?v_164) ?v_302)) (or (or ?v_23 ?v_40) ?v_3)) (or (or ?v_273 ?v_325) ?v_29)) (or (or ?v_85 ?v_41) ?v_262)) (or (or ?v_435 ?v_378) ?v_53)) (or (or P38 ?v_20) ?v_47)) (or (or ?v_75 ?v_19) ?v_54)) (or (or ?v_87 P33) ?v_287)) (or (or ?v_14 ?v_347) ?v_126)) (or (or ?v_71 ?v_121) ?v_110)) (or (or ?v_157 ?v_16) ?v_149)) (or (or ?v_241 P6) ?v_333)) (or (or ?v_226 P13) ?v_130)) (or (or ?v_135 ?v_150) ?v_134)) (or (or ?v_452 P28) ?v_20)) (or (or P12 ?v_31) P2)) (or (or ?v_39 ?v_443) ?v_254)) (or (or P14 ?v_265) ?v_24)) (or (or ?v_246 ?v_76) ?v_392)) (or (or ?v_204 ?v_91) P6)) (or (or ?v_27 ?v_224) ?v_57)) (or (or ?v_73 ?v_133) ?v_90)) (or (or ?v_58 ?v_221) ?v_442)) (or (or ?v_180 ?v_109) ?v_74)) (or (or ?v_140 ?v_113) ?v_253)) (or (or ?v_429 ?v_104) ?v_250)) (or (or P1 ?v_65) ?v_38)) (or (or ?v_81 ?v_256) ?v_89)) (or (or ?v_115 ?v_146) P17)) (or (or ?v_335 ?v_377) ?v_159)) (or (or ?v_217 ?v_39) ?v_40)) (or (or P1 ?v_41) (not ?v_148))) (or (or ?v_18 ?v_361) ?v_155)) (or (or ?v_20 ?v_83) ?v_202)) (or (or ?v_192 ?v_55) ?v_162)) (or (or ?v_437 ?v_102) ?v_47)) (or (or ?v_48 ?v_152) ?v_101)) (or (or ?v_127 ?v_50) ?v_249)) (or (or ?v_170 ?v_118) ?v_60)) (or (or ?v_52 ?v_154) ?v_54)) (or (or P20 ?v_55) ?v_29)) (or (or P24 P26) ?v_59)) (or (or ?v_326 ?v_184) ?v_57)) (or (or ?v_318 ?v_53) ?v_63)) (or (or ?v_59 ?v_60) ?v_21)) (or (or ?v_92 ?v_2) ?v_53)) (or (or ?v_70 P23) ?v_348)) (or (or ?v_63 ?v_244) ?v_374)) (or (or ?v_64 ?v_82) ?v_296)) (or (or ?v_68 ?v_329) ?v_57)) (or (or ?v_281 P11) ?v_259)) (or (or ?v_292 ?v_72) ?v_243)) (or (or ?v_234 ?v_70) ?v_332)) (or (or ?v_71 ?v_198) ?v_72)) (or (or ?v_267 ?v_369) ?v_403)) (or (or ?v_73 ?v_74) ?v_75)) (or (or ?v_117 ?v_214) ?v_334)) (or (or ?v_185 ?v_84) ?v_103)) (or (or ?v_220 ?v_236) ?v_81)) (or (or ?v_82 ?v_343) ?v_83)) (or (or ?v_84 ?v_179) P35)) (or (or ?v_129 ?v_86) ?v_87)) (or (or ?v_230 ?v_151) ?v_194)) (or (or ?v_363 (not ?v_122)) ?v_89)) (or (or ?v_165 ?v_105) ?v_90)) (or (or ?v_91 P22) ?v_92)) (or (or ?v_58 ?v_132) ?v_237)) (or (or ?v_186 ?v_99) ?v_297)) (or (or ?v_100 ?v_208) ?v_101)) (or (or ?v_102 ?v_124) ?v_235)) (or (or ?v_103 ?v_108) ?v_104)) (or (or P16 ?v_163) ?v_337)) (or (or ?v_105 ?v_106) ?v_76)) (or (or ?v_107 ?v_108) ?v_109)) (or (or ?v_477 ?v_223) ?v_209)) (or (or ?v_57 ?v_218) ?v_111)) (or (or ?v_138 ?v_112) ?v_114)) (or (or (not ?v_303) ?v_344) ?v_114)) (or (or ?v_112 ?v_115) ?v_116)) (or (or P17 ?v_117) ?v_118)) (or (or ?v_119 P26) ?v_182)) (or (or ?v_416 ?v_276) ?v_213)) (or (or ?v_120 ?v_440) ?v_141)) (or (or ?v_131 ?v_121) ?v_122)) (or (or ?v_145 ?v_124) ?v_125)) (or (or ?v_126 ?v_115) P32)) (or (or ?v_360 ?v_188) ?v_128)) (or (or ?v_129 ?v_364) P24)) (or (or ?v_130 ?v_355) ?v_207)) (or (or ?v_132 ?v_167) ?v_137)) (or (or ?v_210 ?v_134) ?v_135)) (or (or ?v_136 ?v_288) ?v_161)) (or (or P29 ?v_384) ?v_117)) (or (or ?v_352 ?v_85) ?v_138)) (or (or ?v_52 ?v_468) ?v_140)) (or (or ?v_358 ?v_458) ?v_91)) (or (or P14 ?v_432) ?v_231)) (or (or ?v_99 ?v_282) ?v_451)) (or (or P2 ?v_135) ?v_133)) (or (or ?v_321 ?v_144) ?v_117)) (or (or ?v_306 ?v_146) ?v_14)) (or (or ?v_114 ?v_275) P32)) (or (or ?v_156 ?v_264) ?v_395)) (or (or ?v_191 P2) ?v_148)) (or (or ?v_3 ?v_149) ?v_421)) (or (or ?v_150 ?v_125) ?v_19)) (or (or (not ?v_383) P32) ?v_151)) (or (or ?v_152 ?v_55) ?v_73)) (or (or ?v_212 ?v_100) ?v_257)) (or (or ?v_154 ?v_408) ?v_23)) (or (or ?v_372 P27) (not ?v_155))) (or (or ?v_305 P17) ?v_169)) (or (or ?v_157 ?v_158) P34)) (or (or ?v_159 ?v_177) ?v_109)) (or (or ?v_107 ?v_83) P14)) (or (or P2 ?v_190) ?v_158)) (or (or ?v_161 ?v_162) ?v_122)) (or (or ?v_415 ?v_163) ?v_82)) (or (or ?v_164 P15) ?v_84)) (or (or ?v_165 ?v_166) ?v_167)) (or (or ?v_152 ?v_242) ?v_471)) (or (or ?v_146 ?v_371) ?v_171)) (or (or P16 ?v_219) ?v_172)) (or (or ?v_196 ?v_289) ?v_173)) (or (or ?v_174 ?v_175) P38)) (or (or ?v_72 ?v_176) ?v_271)) (or (or ?v_177 P2) ?v_272)) (or (or ?v_331 ?v_179) ?v_200)) (or (or ?v_240 P16) ?v_300)) (or (or ?v_180 ?v_181) ?v_182)) (or (or ?v_183 ?v_184) ?v_185)) (or (or ?v_266 ?v_187) ?v_322)) (or (or ?v_350 ?v_189) ?v_99)) (or (or ?v_190 P39) P13)) (or (or ?v_191 ?v_381) ?v_124)) (or (or ?v_252 ?v_194) ?v_195)) (or (or ?v_21 ?v_196) ?v_197)) (or (or ?v_198 ?v_199) ?v_106)) (or (or ?v_182 ?v_175) ?v_200)) (or (or ?v_405 ?v_59) ?v_146)) (or (or ?v_448 ?v_202) ?v_91)) (or (or ?v_203 ?v_455) ?v_320)) (or (or ?v_206 ?v_357) ?v_269)) (or (or P17 ?v_207) ?v_124)) (or (or ?v_251 ?v_208) ?v_209)) (or (or ?v_210 ?v_169) ?v_227)) (or (or ?v_211 ?v_212) ?v_213)) (or (or ?v_465 ?v_214) ?v_215)) (or (or ?v_290 ?v_217) ?v_218)) (or (or ?v_219 ?v_220) ?v_221)) (or (or ?v_222 ?v_223) ?v_224)) (or (or ?v_225 ?v_226) ?v_227)) (or (or P33 ?v_233) ?v_229)) (or (or ?v_230 ?v_231) ?v_308)) (or (or ?v_233 ?v_192) ?v_195)) (or (or ?v_234 ?v_235) ?v_236)) (or (or ?v_298 ?v_238) ?v_239)) (or (or ?v_212 ?v_351) (not ?v_159))) (or (or ?v_280 ?v_270) ?v_107)) (or (or ?v_161 ?v_23) ?v_222)) (or (or ?v_241 ?v_165) ?v_247)) (or (or ?v_414 ?v_220) ?v_263)) (or (or ?v_158 ?v_310) ?v_38)) (or (or ?v_106 ?v_243) ?v_244)) (or (or P24 ?v_446) ?v_341)) (or (or ?v_65 ?v_457) ?v_166)) (or (or ?v_248 ?v_258) ?v_249)) (or (or ?v_167 ?v_247) P23)) (or (or ?v_3 ?v_387) ?v_375)) (or (or ?v_466 ?v_251) ?v_83)) (or (or ?v_40 ?v_464) ?v_137)) (or (or ?v_314 ?v_327) ?v_252)) (or (or ?v_253 ?v_254) ?v_116)) (or (or ?v_255 ?v_294) P11)) (or (or P33 ?v_59) ?v_159)) (or (or ?v_256 ?v_257) ?v_258)) (or (or ?v_259 ?v_386) ?v_110)) (or (or ?v_260 P30) ?v_107)) (or (or ?v_154 ?v_203) ?v_110)) (or (or ?v_261 ?v_262) ?v_210)) (or (or ?v_370 ?v_173) ?v_264)) (or (or ?v_103 ?v_265) ?v_266)) (or (or ?v_267 ?v_268) ?v_475)) (or (or ?v_269 ?v_349) ?v_60)) (or (or ?v_149 ?v_210) ?v_231)) (or (or ?v_270 ?v_210) ?v_120)) (or (or ?v_449 ?v_170) P31)) (or (or ?v_271 ?v_272) ?v_206)) (or (or ?v_299 ?v_230) ?v_274)) (or (or ?v_275 ?v_24) ?v_276)) (or (or ?v_277 ?v_253) ?v_278)) (or (or P22 ?v_346) ?v_353)) (or (or P28 P10) ?v_311)) (or (or ?v_213 ?v_280) ?v_281)) (or (or ?v_260 ?v_282) ?v_283)) (or (or ?v_368 ?v_224) ?v_274)) (or (or ?v_439 ?v_120) (not (< ?v_284 (- 23))))) (or (or ?v_267 ?v_316) ?v_16)) (or (or ?v_275 ?v_286) (not ?v_287))) (or (or ?v_460 ?v_149) ?v_354)) (or (or ?v_265 ?v_110) ?v_125)) (or (or ?v_267 ?v_115) ?v_290)) (or (or ?v_106 ?v_190) ?v_229)) (or (or ?v_72 ?v_215) ?v_319)) (or (or ?v_417 ?v_262) ?v_388)) (or (or ?v_292 ?v_293) ?v_294)) (or (or ?v_244 ?v_138) ?v_145)) (or (or ?v_223 ?v_295) ?v_18)) (or (or ?v_296 ?v_297) (not P30))) (or (or ?v_298 ?v_299) ?v_136)) (or (or ?v_307 ?v_300) P15)) (or (or ?v_301 ?v_398) ?v_237)) (or (or ?v_303 P9) ?v_304)) (or (or ?v_208 ?v_422) P22)) (or (or ?v_255 ?v_240) ?v_297)) (or (or P25 ?v_75) ?v_292)) (or (or ?v_133 ?v_305) ?v_306)) (or (or ?v_428 ?v_308) ?v_261)) (or (or ?v_323 ?v_192) ?v_111)) (or (or P15 ?v_309) ?v_366)) (or (or ?v_310 ?v_176) P2)) (or (or ?v_311 ?v_312) ?v_280)) (or (or ?v_104 ?v_236) ?v_313)) (or (or ?v_129 (not P2)) ?v_314)) (or (or P6 ?v_309) ?v_130)) (or (or ?v_478 ?v_122) ?v_338)) (or (or ?v_114 ?v_424) ?v_316)) (or (or ?v_229 ?v_24) ?v_420)) (or (or ?v_198 P38) (not ?v_281))) (or (or P9 ?v_310) ?v_445)) (or (or ?v_92 ?v_318) ?v_174)) (or (or ?v_324 ?v_320) ?v_321)) (or (or ?v_322 ?v_149) ?v_74)) (or (or ?v_144 ?v_323) ?v_92)) (or (or ?v_324 ?v_345) ?v_325)) (or (or ?v_235 ?v_410) ?v_326)) (or (or ?v_327 P31) ?v_328)) (or (or ?v_70 ?v_329) ?v_76)) (or (or ?v_330 ?v_267) ?v_433)) (or (or ?v_331 ?v_252) ?v_295)) (or (or ?v_101 ?v_109) ?v_214)) (or (or ?v_423 ?v_436) ?v_195)) (or (or ?v_283 ?v_268) ?v_171)) (or (or ?v_333 ?v_233) ?v_229)) (or (or ?v_334 ?v_335) ?v_336)) (or (or ?v_157 ?v_27) P30)) (or (or ?v_337 ?v_9) ?v_230)) (or (or ?v_54 ?v_287) ?v_338)) (or (or ?v_339 ?v_323) ?v_332)) (or (or ?v_116 ?v_169) ?v_81)) (or (or ?v_186 ?v_87) P30)) (or (or ?v_293 ?v_55) ?v_189)) (or (or ?v_236 ?v_191) ?v_340)) (or (or ?v_263 ?v_341) ?v_224)) (or (or ?v_342 ?v_343) ?v_266)) (or (or P11 ?v_344) ?v_286)) (or (or ?v_308 ?v_290) ?v_345)) (or (or ?v_418 ?v_223) ?v_346)) (or (or ?v_159 ?v_50) ?v_125)) (or (or P24 ?v_119) ?v_64)) (or (or ?v_347 ?v_29) ?v_348)) (or (or ?v_349 ?v_234) ?v_328)) (or (or ?v_84 ?v_85) ?v_186)) (or (or ?v_350 ?v_263) ?v_175)) (or (or ?v_71 ?v_351) P5)) (or (or ?v_16 ?v_164) ?v_352)) (or (or ?v_55 ?v_454) ?v_112)) (or (or ?v_234 ?v_341) ?v_84)) (or (or ?v_354 ?v_305) ?v_355)) (or (or ?v_290 P13) P3)) (or (or ?v_356 ?v_404) ?v_259)) (or (or ?v_246 ?v_325) ?v_358)) (or (or ?v_301 ?v_278) ?v_325)) (or (or ?v_226 ?v_90) ?v_251)) (or (or ?v_186 ?v_359) ?v_122)) (or (or ?v_214 ?v_170) ?v_70)) (or (or ?v_360 ?v_175) P8)) (or (or ?v_150 ?v_270) ?v_261)) (or (or ?v_183 ?v_209) ?v_258)) (or (or ?v_289 ?v_243) ?v_293)) (or (or ?v_137 P24) ?v_334)) (or (or ?v_148 ?v_270) ?v_164)) (or (or P18 P19) ?v_380)) (or (or ?v_220 ?v_362) P38)) (or (or ?v_363 ?v_358) ?v_271)) (or (or ?v_262 ?v_106) ?v_364)) (or (or ?v_365 ?v_316) ?v_406)) (or (or ?v_169 ?v_355) ?v_81)) (or (or ?v_130 P10) ?v_351)) (or (or ?v_307 ?v_327) ?v_367)) (or (or P22 ?v_368) ?v_176)) (or (or ?v_127 ?v_346) ?v_316)) (or (or ?v_55 ?v_130) P29)) (or (or ?v_369 ?v_370) ?v_371)) (or (or ?v_320 ?v_83) ?v_372)) (or (or P9 ?v_373) ?v_374)) (or (or ?v_124 ?v_397) ?v_163)) (or (or ?v_180 ?v_348) ?v_375)) (or (or ?v_211 ?v_125) ?v_76)) (or (or ?v_300 ?v_334) P7)) (or (or ?v_313 P20) ?v_248)) (or (or ?v_376 ?v_107) ?v_332)) (or (or ?v_57 ?v_234) ?v_374)) (or (or ?v_107 ?v_155) ?v_377)) (or (or ?v_378 ?v_431) ?v_156)) (or (or ?v_283 ?v_399) ?v_263)) (or (or ?v_24 ?v_338) ?v_379)) (or (or ?v_441 ?v_380) ?v_204)) (or (or ?v_164 ?v_71) ?v_18)) (or (or P29 P26) ?v_304)) (or (or ?v_381 ?v_462) P12)) (or (or ?v_181 ?v_180) ?v_382)) (or (or P3 P17) ?v_383)) (or (or ?v_384 ?v_385) P14)) (or (or ?v_290 ?v_369) ?v_386)) (or (or ?v_65 ?v_337) ?v_387)) (or (or ?v_331 ?v_272) ?v_338)) (or (or P29 ?v_358) ?v_388)) (or (or ?v_89 P18) ?v_128)) (or (or ?v_390 ?v_54) ?v_295)) (or (or ?v_55 ?v_383) ?v_182)) (or (or ?v_402 P27) ?v_276)) (or (or ?v_339 ?v_251) ?v_365)) (or (or P39 ?v_133) P5)) (or (or ?v_295 ?v_389) ?v_91)) (or (or ?v_434 ?v_345) ?v_23)) (or (or ?v_344 P7) ?v_390)) (or (or P27 ?v_235) ?v_378)) (or (or ?v_306 ?v_321) ?v_209)) (or (or ?v_263 ?v_215) ?v_47)) (or (or ?v_294 ?v_427) ?v_388)) (or (or ?v_192 ?v_179) ?v_70)) (or (or ?v_225 ?v_130) ?v_391)) (or (or ?v_364 ?v_212) ?v_71)) (or (or ?v_293 P15) ?v_392)) (or (or ?v_105 ?v_137) ?v_300)) (or (or ?v_223 ?v_275) ?v_116)) (or (or ?v_68 ?v_100) ?v_175)) (or (or ?v_396 ?v_401) P18)) (or (or ?v_154 ?v_355) ?v_270)) (or (or ?v_393 ?v_300) ?v_111)) (or (or ?v_109 ?v_159) ?v_189)) (or (or ?v_179 ?v_352) ?v_137)) (or (or ?v_60 ?v_394) ?v_227)) (or (or P24 ?v_395) ?v_396)) (or (or ?v_377 ?v_19) ?v_273)) (or (or ?v_425 ?v_54) P38)) (or (or ?v_397 ?v_398) ?v_381)) (or (or (not ?v_115) P11) ?v_202)) (or (or ?v_413 ?v_50) ?v_383)) (or (or ?v_399 ?v_257) ?v_308)) (or (or ?v_400 ?v_90) ?v_401)) (or (or ?v_52 ?v_217) ?v_368)) (or (or ?v_155 ?v_402) ?v_192)) (or (or ?v_403 ?v_19) P37)) (or (or ?v_167 ?v_404) ?v_390)) (or (or ?v_314 ?v_250) ?v_405)) (or (or ?v_140 ?v_294) ?v_396)) (or (or ?v_110 ?v_321) ?v_406)) (or (or ?v_64 P23) ?v_187)) (or (or ?v_218 ?v_107) ?v_368)) (or (or ?v_328 ?v_125) P39)) (or (or ?v_339 ?v_305) ?v_38)) (or (or ?v_155 ?v_407) P31)) (or (or ?v_251 ?v_125) P7)) (or (or ?v_383 ?v_408) ?v_264)) (or (or ?v_20 ?v_409) (not ?v_438))) (or (or ?v_246 ?v_410) ?v_278)) (or (or ?v_411 ?v_180) ?v_305)) (or (or ?v_412 ?v_163) ?v_362)) (or (or ?v_372 ?v_282) ?v_349)) (or (or ?v_125 ?v_100) ?v_222)) (or (or ?v_253 ?v_405) P15)) (or (or ?v_243 ?v_128) ?v_103)) (or (or ?v_318 ?v_213) ?v_413)) (or (or ?v_272 P23) ?v_414)) (or (or ?v_314 ?v_176) ?v_101)) (or (or P36 ?v_415) ?v_194)) (or (or ?v_226 ?v_148) ?v_352)) (or (or ?v_293 ?v_262) ?v_156)) (or (or ?v_154 ?v_124) ?v_214)) (or (or ?v_164 ?v_336) ?v_167)) (or (or ?v_185 ?v_102) ?v_302)) (or (or ?v_318 ?v_111) ?v_416)) (or (or ?v_137 ?v_375) ?v_299)) (or (or ?v_135 ?v_324) ?v_48)) (or (or ?v_221 ?v_417) ?v_70)) (or (or ?v_182 ?v_331) ?v_208)) (or (or ?v_190 ?v_53) ?v_108)) (or (or ?v_418 ?v_101) ?v_72)) (or (or ?v_74 ?v_257) ?v_68)) (or (or ?v_419 ?v_400) ?v_362)) (or (or ?v_101 ?v_420) P14)) (or (or ?v_361 ?v_378) ?v_334)) (or (or ?v_421 ?v_266) ?v_422)) (or (or ?v_343 ?v_187) ?v_423)) (or (or ?v_200 ?v_131) ?v_424)) (or (or ?v_425 ?v_184) ?v_170)) (or (or ?v_161 ?v_430) P24)) (or (or ?v_415 ?v_184) ?v_352)) (or (or ?v_371 ?v_370) ?v_14)) (or (or P9 ?v_84) ?v_104)) (or (or ?v_426 ?v_427) ?v_414)) (or (or ?v_428 ?v_373) ?v_349)) (or (or ?v_474 ?v_338) ?v_388)) (or (or ?v_403 ?v_415) ?v_290)) (or (or P7 ?v_363) ?v_181)) (or (or ?v_429 ?v_175) ?v_302)) (or (or ?v_393 ?v_109) ?v_305)) (or (or ?v_430 ?v_404) P39)) (or (or ?v_422 P20) ?v_470)) (or (or ?v_396 ?v_114) P16)) (or (or ?v_244 ?v_83) ?v_430)) (or (or ?v_218 ?v_367) ?v_431)) (or (or ?v_432 ?v_290) P11)) (or (or P6 ?v_290) ?v_161)) (or (or ?v_428 ?v_421) ?v_9)) (or (or ?v_332 ?v_65) ?v_313)) (or (or ?v_298 ?v_277) ?v_346)) (or (or ?v_343 ?v_71) ?v_433)) (or (or ?v_434 ?v_218) ?v_180)) (or (or ?v_435 ?v_288) ?v_403)) (or (or ?v_373 ?v_419) ?v_340)) (or (or ?v_436 P7) ?v_266)) (or (or ?v_388 ?v_374) ?v_289)) (or (or ?v_431 ?v_50) ?v_444)) (or (or ?v_155 ?v_437) ?v_438)) (or (or ?v_328 P33) ?v_230)) (or (or P8 ?v_320) ?v_403)) (or (or ?v_128 ?v_283) ?v_48)) (or (or ?v_252 ?v_257) ?v_439)) (or (or ?v_113 ?v_331) ?v_338)) (or (or ?v_305 ?v_126) ?v_314)) (or (or ?v_148 ?v_356) ?v_440)) (or (or ?v_100 ?v_266) ?v_274)) (or (or ?v_57 ?v_389) P39)) (or (or ?v_399 ?v_441) ?v_430)) (or (or P23 ?v_149) P4)) (or (or ?v_92 ?v_254) ?v_404)) (or (or ?v_349 ?v_209) ?v_128)) (or (or P10 ?v_217) ?v_158)) (or (or ?v_31 ?v_415) ?v_141)) (or (or ?v_124 ?v_442) ?v_151)) (or (or ?v_255 ?v_402) ?v_438)) (or (or ?v_431 ?v_165) ?v_281)) (or (or ?v_224 ?v_187) ?v_121)) (or (or ?v_418 ?v_189) ?v_339)) (or (or ?v_16 P5) P30)) (or (or ?v_274 P15) P1)) (or (or ?v_106 ?v_246) ?v_427)) (or (or ?v_295 ?v_443) P3)) (or (or P36 ?v_406) P39)) (or (or ?v_444 ?v_331) ?v_419)) (or (or ?v_323 ?v_382) ?v_445)) (or (or P14 ?v_159) ?v_336)) (or (or ?v_446 ?v_264) P33)) (or (or ?v_109 P23) ?v_223)) (or (or ?v_239 ?v_264) ?v_126)) (or (or ?v_166 ?v_447) ?v_427)) (or (or ?v_343 ?v_90) ?v_448)) (or (or ?v_253 ?v_449) ?v_57)) (or (or ?v_450 ?v_437) ?v_74)) (or (or ?v_322 ?v_451) ?v_452)) (or (or ?v_403 ?v_179) ?v_446)) (or (or ?v_453 ?v_383) P31)) (or (or ?v_370 P24) P17)) (or (or ?v_454 ?v_366) ?v_131)) (or (or ?v_272 ?v_350) ?v_287)) (or (or ?v_111 ?v_411) ?v_149)) (or (or ?v_320 ?v_148) ?v_100)) (or (or ?v_335 ?v_401) ?v_469)) (or (or ?v_119 ?v_456) ?v_455)) (or (or ?v_217 ?v_214) ?v_341)) (or (or ?v_371 ?v_120) ?v_384)) (or (or ?v_269 ?v_283) (not P32))) (or (or ?v_407 P3) ?v_126)) (or (or ?v_438 ?v_456) ?v_296)) (or (or ?v_457 ?v_274) ?v_322)) (or (or ?v_459 ?v_410) ?v_433)) (or (or ?v_351 ?v_209) (not ?v_300))) (or (or ?v_438 ?v_200) ?v_185)) (or (or ?v_197 ?v_350) P36)) (or (or ?v_83 ?v_355) ?v_152)) (or (or ?v_307 ?v_387) ?v_190)) (or (or ?v_242 ?v_403) ?v_458)) (or (or ?v_343 ?v_351) ?v_264)) (or (or ?v_176 ?v_82) ?v_395)) (or (or ?v_441 ?v_104) P25)) (or (or ?v_213 ?v_303) P36)) (or (or ?v_235 ?v_459) ?v_460)) (or (or ?v_461 ?v_105) ?v_322)) (or (or ?v_262 ?v_371) ?v_462)) (or (or P39 ?v_410) ?v_420)) (or (or ?v_131 ?v_387) ?v_176)) (or (or ?v_377 ?v_210) ?v_50)) (or (or ?v_366 ?v_157) P23)) (or (or ?v_162 ?v_357) ?v_189)) (or (or P12 ?v_335) ?v_372)) (or (or ?v_48 ?v_404) ?v_387)) (or (or ?v_275 ?v_190) ?v_473)) (or (or ?v_295 P5) ?v_148)) (or (or ?v_463 P27) ?v_183)) (or (or ?v_293 ?v_128) ?v_134)) (or (or ?v_254 ?v_172) ?v_349)) (or (or ?v_464 ?v_367) ?v_235)) (or (or ?v_53 ?v_288) ?v_275)) (or (or ?v_303 ?v_418) ?v_399)) (or (or ?v_437 ?v_144) ?v_108)) (or (or ?v_63 ?v_403) ?v_116)) (or (or ?v_375 ?v_224) ?v_465)) (or (or ?v_242 ?v_157) ?v_288)) (or (or ?v_227 ?v_264) ?v_441)) (or (or ?v_331 ?v_86) ?v_162)) (or (or P4 ?v_453) ?v_462)) (or (or ?v_23 ?v_439) ?v_399)) (or (or ?v_164 ?v_231) (not ?v_418))) (or (or ?v_111 ?v_240) ?v_365)) (or (or ?v_437 ?v_181) ?v_267)) (or (or ?v_344 ?v_454) ?v_206)) (or (or ?v_466 ?v_316) P33)) (or (or ?v_461 ?v_111) ?v_446)) (or (or ?v_334 ?v_432) ?v_306)) (or (or P18 ?v_416) P38)) (or (or ?v_461 ?v_151) ?v_330)) (or (or P29 ?v_277) P36)) (or (or ?v_259 ?v_155) ?v_305)) (or (or ?v_106 ?v_82) ?v_200)) (or (or P23 ?v_152) ?v_332)) (or (or ?v_458 ?v_343) ?v_52)) (or (or ?v_91 ?v_411) ?v_455)) (or (or P25 ?v_240) ?v_383)) (or (or ?v_331 ?v_378) ?v_223)) (or (or ?v_300 ?v_256) ?v_394)) (or (or ?v_244 ?v_432) ?v_132)) (or (or ?v_115 ?v_435) ?v_173)) (or (or ?v_406 ?v_131) ?v_246)) (or (or ?v_65 ?v_451) ?v_282)) (or (or ?v_191 ?v_212) ?v_140)) (or (or ?v_449 ?v_439) ?v_467)) (or (or ?v_468 ?v_409) ?v_323)) (or (or ?v_126 P23) ?v_377)) (or (or ?v_52 ?v_238) ?v_87)) (or (or ?v_464 (not ?v_102)) ?v_86)) (or (or ?v_103 ?v_89) ?v_394)) (or (or ?v_387 ?v_221) ?v_331)) (or (or ?v_172 ?v_443) ?v_221)) (or (or ?v_282 ?v_124) ?v_191)) (or (or ?v_354 ?v_433) ?v_242)) (or (or ?v_322 ?v_281) ?v_175)) (or (or ?v_188 ?v_387) ?v_314)) (or (or ?v_136 ?v_298) ?v_233)) (or (or ?v_476 ?v_198) ?v_310)) (or (or ?v_68 ?v_376) ?v_170)) (or (or ?v_318 ?v_413) ?v_472)) (or (or ?v_134 ?v_186) ?v_297)) (or (or ?v_128 ?v_257) ?v_304)) (or (or ?v_319 P39) ?v_469)) (or (or ?v_135 ?v_68) ?v_74)) (or (or ?v_298 ?v_470) ?v_283)) (or (or ?v_251 ?v_170) ?v_300)) (or (or ?v_191 ?v_471) ?v_472)) (or (or ?v_229 ?v_297) P32)) (or (or ?v_343 ?v_427) ?v_274)) (or (or ?v_424 ?v_311) ?v_156)) (or (or P5 ?v_23) ?v_182)) (or (or ?v_459 P27) ?v_212)) (or (or ?v_227 P4) ?v_122)) (or (or ?v_473 ?v_159) ?v_311)) (or (or ?v_439 ?v_179) ?v_321)) (or (or ?v_118 P6) (not ?v_375))) (or (or ?v_102 ?v_373) ?v_122)) (or (or ?v_474 ?v_129) ?v_68)) (or (or ?v_272 ?v_392) ?v_210)) (or (or ?v_345 ?v_461) ?v_48)) (or (or ?v_159 ?v_106) ?v_230)) (or (or ?v_261 ?v_472) ?v_311)) (or (or ?v_192 P2) ?v_428)) (or (or ?v_204 (not ?v_475)) ?v_133)) (or (or ?v_68 ?v_355) ?v_231)) (or (or ?v_23 ?v_476) P20)) (or (or ?v_462 ?v_223) ?v_327)) (or (or ?v_330 ?v_352) ?v_260)) (or (or P31 ?v_339) ?v_154)) (or (or ?v_185 ?v_74) ?v_227)) (or (or ?v_161 ?v_396) ?v_472)) (or (or ?v_298 ?v_361) ?v_219)) (or (or ?v_477 ?v_412) ?v_166)) (or (or ?v_465 ?v_175) ?v_254)) (or (or ?v_296 ?v_185) ?v_310)) (or (or ?v_435 ?v_215) ?v_478)) (or (or ?v_148 ?v_286) ?v_211)) (or (or ?v_368 ?v_456) ?v_31)) (or (or ?v_117 ?v_337) ?v_441)) (or (or ?v_155 ?v_378) ?v_242)) (or (or ?v_446 ?v_38) ?v_219)))))))))))))))))))))))))))))))))))))))))))))))))))))))))))))))))))))))))))))))))))))))))))
(check-sat)
(exit)
